proyfinal/src/viki/013/andrea/andrea-localstore/experimentInOfficeAgust.take6/worker_9/a35262a1-aaba-45ba-8806-6e5b01723232.als.cnf.out
Reading from standard input... Use '--help' for help.
============================[ Problem Statistics ]=============================
|                                                                             |
|  Number of variables:         87638                                         |
|  Number of clauses:          161767                                         |
|  Parse time:                   0.03 s                                       |
|                                                                             |
============================[ Search Statistics ]==============================
| Conflicts |          ORIGINAL         |          LEARNT          | Progress |
|           |    Vars  Clauses Literals |    Limit  Clauses Lit/Cl |          |
===============================================================================
|       100 |   63210   108214   270331 |    39678      100     10 | 27.874 % |
|       250 |   63210   108214   270331 |    43646      250     10 | 27.874 % |
|       475 |   63210   108214   270331 |    48010      475     18 | 27.874 % |
|       812 |   63191   108096   270070 |    52812      810     36 | 27.895 % |
|      1318 |   63191   108096   270070 |    58093     1316     50 | 27.895 % |
|      2077 |   63191   108096   270070 |    63902     2075     52 | 27.895 % |
|      3216 |   63191   108096   270070 |    70292     3214     66 | 27.895 % |
|      4924 |   53920    80418   201948 |    77322     4850     68 | 38.474 % |
|      7486 |   53500    80172   201358 |    85054     7394     67 | 38.953 % |
===============================================================================
restarts              : 46
conflicts             : 11164          (7994 /sec)
decisions             : 57037          (0.00 % random) (40840 /sec)
propagations          : 15543033       (11129179 /sec)
conflict literals     : 740050         (40.36 % deleted)
Memory used           : 25.19 MB
CPU time              : 1.3966 s

INDETERMINATE
